p cnf 15 43
-15 -12 14 0 
-9 1 2 0 
-8 -6 12 0 
-13 -5 -4 0 
-12 6 11 0 
2 11 14 0 
-9 -4 6 0 
-8 -7 4 0 
-5 -3 4 0 
-3 -2 12 0 
-14 -13 -5 0 
-5 2 9 0 
-11 5 9 0 
-9 -5 13 0 
-6 1 10 0 
-9 5 14 0 
-4 3 9 0 
-11 -9 4 0 
-13 -12 8 0 
-7 4 10 0 
-15 -14 -9 0 
-6 -5 12 0 
-11 -4 9 0 
-10 12 14 0 
-12 -5 1 0 
-12 -4 5 0 
-4 14 15 0 
-4 -3 8 0 
-13 -7 6 0 
-11 -3 1 0 
-11 -3 10 0 
-10 -9 5 0 
-7 13 14 0 
-6 2 4 0 
-12 -5 3 0 
-12 -4 -2 0 
-10 -5 15 0 
-13 -9 8 0 
-5 1 11 0 
-4 7 14 0 
-14 -9 -3 0 
-5 -4 6 0 
-4 1 10 0 
